c t mc
c file mc2023_track1_029.cnf
p cnf 839 1386
41 -24 9 0
25 -41 -8 24 0
25 -41 -9 0
41 -25 -24 0
41 -25 8 0
-25 -41 -8 -9 24 0
41 8 9 0
41 -25 9 0
-42 26 -10 0
41 26 10 -42 0
42 -41 10 0
41 -26 -10 -42 0
42 -26 -41 0
42 -26 10 0
-43 27 -11 0
-43 42 27 0
43 -42 11 0
-43 42 -11 0
43 -42 -27 0
43 -27 11 0
-44 28 -12 0
43 28 12 -44 0
44 -43 12 0
43 -28 -12 -44 0
44 -43 -28 0
44 -28 12 0
-45 29 -13 0
44 29 13 -45 0
45 -44 13 0
44 -29 -13 -45 0
45 -44 -29 0
45 -29 13 0
-46 30 -14 0
45 30 14 -46 0
46 -45 14 0
45 -30 -14 -46 0
46 -45 -30 0
46 -30 14 0
-47 31 -15 0
-47 46 31 0
47 -46 15 0
-47 46 -15 0
47 -46 -31 0
47 -31 15 0
-48 32 -16 0
47 32 16 -48 0
48 -47 16 0
47 -32 -16 -48 0
48 -47 -32 0
48 -32 16 0
-49 33 -17 0
48 33 17 -49 0
49 -48 17 0
48 -33 -17 -49 0
49 -48 -33 0
49 -33 17 0
-50 34 -18 0
49 34 18 -50 0
50 -49 18 0
49 -34 -18 -50 0
50 -49 -34 0
50 -34 18 0
-51 35 -19 0
50 35 19 -51 0
51 -50 19 0
50 -35 -19 -51 0
51 -50 -35 0
51 -35 19 0
-52 36 -20 0
51 36 20 -52 0
52 -51 20 0
51 -36 -20 -52 0
52 -51 -36 0
52 -36 20 0
-53 37 -21 0
52 37 21 -53 0
53 -52 21 0
52 -37 -21 -53 0
53 -52 -37 0
53 -37 21 0
-38 39 22 23 802 805 804 803 0
-53 106 -23 -22 -38 804 805 -39 803 802 0
-53 39 -22 106 23 805 -38 804 803 802 0
802 804 -38 22 -39 805 -23 803 0
-53 38 23 106 22 39 805 804 803 802 0
-53 106 22 -23 804 38 805 -39 803 802 0
802 803 -23 39 805 804 0
-24 83 -8 79 88 82 85 87 81 80 84 77 86 76 75 106 78 -39 -23 0
-106 24 -8 0
39 79 23 76 75 77 80 85 81 86 84 83 87 82 88 106 78 24 8 0
-25 -75 -9 0
25 -75 9 0
-25 75 9 0
25 75 -9 0
-26 -76 -10 0
26 -76 10 0
-26 76 10 0
26 76 -10 0
-27 -77 -11 0
27 -77 11 0
-27 77 11 0
27 77 -11 0
-28 -78 -12 0
28 -78 12 0
-28 78 12 0
28 78 -12 0
-29 -79 -13 0
29 -79 13 0
-29 79 13 0
29 79 -13 0
-30 -80 -14 0
30 -80 14 0
-30 80 14 0
30 80 -14 0
-31 -81 -15 0
31 -81 15 0
-31 81 15 0
31 81 -15 0
-32 -82 -16 0
32 -82 16 0
-32 82 16 0
32 82 -16 0
-33 -83 -17 0
33 -83 17 0
-33 83 17 0
33 83 -17 0
-34 -84 -18 0
34 -84 18 0
-34 84 18 0
34 84 -18 0
-35 -85 -19 0
35 -85 19 0
-35 85 19 0
35 85 -19 0
-36 -86 -20 0
36 -86 20 0
-36 86 20 0
36 86 -20 0
-37 -87 -21 0
37 -87 21 0
-37 87 21 0
37 87 -21 0
-38 -88 -22 0
38 -88 22 0
-38 88 22 0
38 88 -22 0
-24 81 -8 76 86 77 80 84 79 85 87 82 88 75 78 83 106 39 23 0
39 -106 -23 0
-24 -106 8 0
-75 -106 0
-76 -106 0
-77 -106 0
-78 -106 0
-79 -106 0
-80 -106 0
-81 -106 0
-82 -106 0
-83 -106 0
-84 -106 0
-85 -106 0
-86 -106 0
-87 -106 0
-88 -106 0
-106 -39 23 0
75 76 78 81 77 86 80 84 87 88 82 79 85 83 106 -39 24 -23 8 0
160 -143 9 0
-160 143 -8 -9 0
-160 144 -9 0
143 -160 144 -8 0
143 160 8 -9 -144 0
160 -143 -144 0
144 160 9 8 0
160 -144 9 0
-161 145 -10 0
160 145 10 -161 0
161 -160 10 0
160 -145 -10 -161 0
161 -160 -145 0
161 -145 10 0
-162 146 -11 0
-162 161 146 0
162 -161 11 0
-162 161 -11 0
162 -161 -146 0
162 -146 11 0
-163 147 -12 0
162 147 12 -163 0
163 -162 12 0
162 -147 -12 -163 0
163 -162 -147 0
163 -147 12 0
-164 148 -13 0
163 148 13 -164 0
164 -163 13 0
163 -148 -13 -164 0
164 -163 -148 0
164 -148 13 0
-165 149 -14 0
-165 164 149 0
165 -164 14 0
-165 164 -14 0
165 -164 -149 0
165 -149 14 0
-166 150 -15 0
165 150 15 -166 0
166 -165 15 0
165 -150 -15 -166 0
166 -165 -150 0
166 -150 15 0
-167 151 -16 0
166 151 16 -167 0
167 -166 16 0
166 -151 -16 -167 0
167 -166 -151 0
167 -151 16 0
-168 152 -17 0
167 152 17 -168 0
168 -167 17 0
167 -152 -17 -168 0
168 -167 -152 0
168 -152 17 0
-169 153 -18 0
168 153 18 -169 0
169 -168 18 0
168 -153 -18 -169 0
169 -168 -153 0
169 -153 18 0
-170 154 -19 0
169 154 19 -170 0
170 -169 19 0
169 -154 -19 -170 0
170 -169 -154 0
170 -154 19 0
-171 155 -20 0
170 155 20 -171 0
171 -170 20 0
170 -155 -20 -171 0
171 -170 -155 0
171 -155 20 0
-172 156 -21 0
171 156 21 -172 0
172 -171 21 0
171 -156 -21 -172 0
172 -171 -156 0
172 -156 21 0
809 -157 22 23 807 810 158 808 0
808 -172 -157 -23 225 810 809 -158 807 0
-172 809 -157 225 23 808 810 158 807 0
808 -157 22 -23 807 809 810 0
-172 807 23 225 22 808 810 158 809 0
-172 810 22 225 -23 807 809 -158 808 0
808 810 -23 158 807 809 0
-143 -193 -8 0
143 -193 8 0
-143 193 8 0
143 193 -8 0
-144 -194 -9 0
144 -194 9 0
-144 194 9 0
144 194 -9 0
-145 -195 -10 0
145 -195 10 0
-145 195 10 0
145 195 -10 0
-146 -196 -11 0
146 -196 11 0
-146 196 11 0
146 196 -11 0
-147 -197 -12 0
147 -197 12 0
-147 197 12 0
147 197 -12 0
-148 -198 -13 0
148 -198 13 0
-148 198 13 0
148 198 -13 0
-149 -199 -14 0
149 -199 14 0
-149 199 14 0
149 199 -14 0
-150 -200 -15 0
150 -200 15 0
-150 200 15 0
150 200 -15 0
-151 -201 -16 0
151 -201 16 0
-151 201 16 0
151 201 -16 0
-152 -202 -17 0
152 -202 17 0
-152 202 17 0
152 202 -17 0
-153 -203 -18 0
153 -203 18 0
-153 203 18 0
153 203 -18 0
-154 -204 -19 0
154 -204 19 0
-154 204 19 0
154 204 -19 0
-155 -205 -20 0
155 -205 20 0
-155 205 20 0
155 205 -20 0
-156 -206 -21 0
156 -206 21 0
-156 206 21 0
156 206 -21 0
-157 195 -23 225 204 205 206 198 202 199 200 201 194 203 193 196 197 -158 -22 0
157 -225 -22 0
158 193 23 195 204 205 206 198 199 194 203 201 200 196 197 225 202 22 157 0
-157 194 -22 195 204 205 206 198 199 203 201 200 197 193 202 196 225 158 23 0
158 -225 -23 0
-193 -225 0
-194 -225 0
-195 -225 0
-196 -225 0
-197 -225 0
-198 -225 0
-199 -225 0
-200 -225 0
-201 -225 0
-202 -225 0
-203 -225 0
-204 -225 0
-205 -225 0
-206 -225 0
-157 -225 22 0
-225 -158 23 0
193 203 194 195 204 205 206 202 198 200 201 197 199 196 225 -158 22 157 -23 0
263 -246 9 0
-263 -247 -9 -8 246 0
-263 247 -9 0
247 -263 9 -8 246 0
263 -247 8 0
263 -246 -247 0
246 263 9 8 0
263 -247 9 0
-264 248 -10 0
263 248 10 -264 0
264 -263 10 0
263 -248 -10 -264 0
264 -263 -248 0
264 -248 10 0
-265 249 -11 0
264 249 11 -265 0
265 -264 11 0
264 -249 -11 -265 0
265 -264 -249 0
265 -249 11 0
-266 250 -12 0
265 250 12 -266 0
266 -265 12 0
265 -250 -12 -266 0
266 -265 -250 0
266 -250 12 0
-267 251 -13 0
266 251 13 -267 0
267 -266 13 0
266 -251 -13 -267 0
267 -266 -251 0
267 -251 13 0
-268 252 -14 0
267 252 14 -268 0
268 -267 14 0
267 -252 -14 -268 0
268 -267 -252 0
268 -252 14 0
-269 253 -15 0
268 253 15 -269 0
269 -268 15 0
268 -253 -15 -269 0
269 -268 -253 0
269 -253 15 0
-270 254 -16 0
269 254 16 -270 0
270 -269 16 0
269 -254 -16 -270 0
270 -269 -254 0
270 -254 16 0
-271 255 -17 0
270 255 17 -271 0
271 -270 17 0
270 -255 -17 -271 0
271 -270 -255 0
271 -255 17 0
-272 256 -18 0
271 256 18 -272 0
272 -271 18 0
271 -256 -18 -272 0
272 -271 -256 0
272 -256 18 0
-273 257 -19 0
272 257 19 -273 0
273 -272 19 0
272 -257 -19 -273 0
273 -272 -257 0
273 -257 19 0
-274 258 -20 0
273 258 20 -274 0
274 -273 20 0
273 -258 -20 -274 0
274 -273 -258 0
274 -258 20 0
-275 259 -21 0
274 259 21 -275 0
275 -274 21 0
274 -259 -21 -275 0
275 -274 -259 0
275 -259 21 0
812 261 22 -260 23 815 814 813 0
813 -275 -260 328 -23 815 -261 814 812 0
813 -275 -260 328 261 815 23 814 812 0
812 -260 22 -23 815 -261 814 813 0
-275 815 261 328 22 260 23 814 813 812 0
-275 815 22 328 -261 260 -23 814 813 812 0
814 813 -23 261 815 812 0
-246 -296 -8 0
246 -296 8 0
-246 296 8 0
246 296 -8 0
-247 -297 -9 0
247 -297 9 0
-247 297 9 0
247 297 -9 0
-248 -298 -10 0
248 -298 10 0
-248 298 10 0
248 298 -10 0
-249 -299 -11 0
249 -299 11 0
-249 299 11 0
249 299 -11 0
-250 -300 -12 0
250 -300 12 0
-250 300 12 0
250 300 -12 0
-251 -301 -13 0
251 -301 13 0
-251 301 13 0
251 301 -13 0
-252 -302 -14 0
252 -302 14 0
-252 302 14 0
252 302 -14 0
-253 -303 -15 0
253 -303 15 0
-253 303 15 0
253 303 -15 0
-254 -304 -16 0
254 -304 16 0
-254 304 16 0
254 304 -16 0
-255 -305 -17 0
255 -305 17 0
-255 305 17 0
255 305 -17 0
-256 -306 -18 0
256 -306 18 0
-256 306 18 0
256 306 -18 0
-257 -307 -19 0
257 -307 19 0
-257 307 19 0
257 307 -19 0
-258 -308 -20 0
258 -308 20 0
-258 308 20 0
258 308 -20 0
-259 -309 -21 0
259 -309 21 0
-259 309 21 0
259 309 -21 0
328 306 -22 -23 302 297 303 304 305 296 298 299 300 308 301 309 307 -261 -260 0
260 -328 -22 0
261 328 22 308 302 296 303 304 305 298 306 297 300 301 307 309 299 23 260 0
-260 308 -22 302 296 303 307 304 300 298 306 297 301 305 299 309 328 23 261 0
261 -328 -23 0
-296 -328 0
-297 -328 0
-298 -328 0
-299 -328 0
-300 -328 0
-301 -328 0
-302 -328 0
-303 -328 0
-304 -328 0
-305 -328 0
-306 -328 0
-307 -328 0
-308 -328 0
-309 -328 0
-260 -328 22 0
-328 -261 23 0
308 299 306 302 301 296 303 304 298 307 300 297 305 309 328 -261 22 260 -23 0
366 -349 9 0
-366 -350 -8 -9 349 0
-366 350 -9 0
350 -366 9 -8 349 0
366 -350 8 0
366 -349 -350 0
349 366 9 8 0
366 -350 9 0
-367 351 -10 0
366 351 10 -367 0
367 -366 10 0
366 -351 -10 -367 0
367 -366 -351 0
367 -351 10 0
-368 352 -11 0
367 352 11 -368 0
368 -367 11 0
367 -352 -11 -368 0
368 -367 -352 0
368 -352 11 0
-369 353 -12 0
-369 368 353 0
369 -368 12 0
-369 368 -12 0
369 -368 -353 0
369 -353 12 0
-370 354 -13 0
-370 369 354 0
370 -369 13 0
-370 369 -13 0
370 -369 -354 0
370 -354 13 0
-371 355 -14 0
370 355 14 -371 0
371 -370 14 0
370 -355 -14 -371 0
371 -370 -355 0
371 -355 14 0
-372 356 -15 0
-372 371 356 0
372 -371 15 0
-372 371 -15 0
372 -371 -356 0
372 -356 15 0
-373 357 -16 0
372 357 16 -373 0
373 -372 16 0
372 -357 -16 -373 0
373 -372 -357 0
373 -357 16 0
-374 358 -17 0
373 358 17 -374 0
374 -373 17 0
373 -358 -17 -374 0
374 -373 -358 0
374 -358 17 0
-375 359 -18 0
374 359 18 -375 0
375 -374 18 0
374 -359 -18 -375 0
375 -374 -359 0
375 -359 18 0
-376 360 -19 0
-376 375 360 0
376 -375 19 0
-376 375 -19 0
376 -375 -360 0
376 -360 19 0
-377 361 -20 0
376 361 20 -377 0
377 -376 20 0
376 -361 -20 -377 0
377 -376 -361 0
377 -361 20 0
-378 362 -21 0
-378 377 362 0
378 -377 21 0
-378 377 -21 0
378 -377 -362 0
378 -362 21 0
817 364 22 -363 820 23 819 818 0
820 -378 -22 431 -364 819 -363 818 817 -23 0
-378 820 -22 431 23 364 -363 819 818 817 0
819 -363 22 -23 820 -364 818 817 0
-378 820 364 431 22 363 23 819 818 817 0
-378 819 431 -364 22 363 820 818 817 -23 0
817 819 -23 364 820 818 0
-349 -399 -8 0
349 -399 8 0
-349 399 8 0
349 399 -8 0
-350 -400 -9 0
350 -400 9 0
-350 400 9 0
350 400 -9 0
-351 -401 -10 0
351 -401 10 0
-351 401 10 0
351 401 -10 0
-352 -402 -11 0
352 -402 11 0
-352 402 11 0
352 402 -11 0
-353 -403 -12 0
353 -403 12 0
-353 403 12 0
353 403 -12 0
-354 -404 -13 0
354 -404 13 0
-354 404 13 0
354 404 -13 0
-355 -405 -14 0
355 -405 14 0
-355 405 14 0
355 405 -14 0
-356 -406 -15 0
356 -406 15 0
-356 406 15 0
356 406 -15 0
-357 -407 -16 0
357 -407 16 0
-357 407 16 0
357 407 -16 0
-358 -408 -17 0
358 -408 17 0
-358 408 17 0
358 408 -17 0
-359 -409 -18 0
359 -409 18 0
-359 409 18 0
359 409 -18 0
-360 -410 -19 0
360 -410 19 0
-360 410 19 0
360 410 -19 0
-361 -411 -20 0
361 -411 20 0
-361 411 20 0
361 411 -20 0
-362 -412 -21 0
362 -412 21 0
-362 412 21 0
362 412 -21 0
-363 431 -23 409 406 404 400 407 401 408 402 403 399 411 405 412 410 -364 -22 0
363 -431 -22 0
364 411 22 406 408 401 407 403 400 402 404 399 405 412 410 409 431 23 363 0
411 406 23 -22 412 408 400 407 403 404 399 410 405 409 402 401 431 -363 364 0
364 -431 -23 0
-399 -431 0
-400 -431 0
-401 -431 0
-402 -431 0
-403 -431 0
-404 -431 0
-405 -431 0
-406 -431 0
-407 -431 0
-408 -431 0
-409 -431 0
-410 -431 0
-411 -431 0
-412 -431 0
-363 -431 22 0
-431 -364 23 0
410 411 399 402 405 407 409 403 408 406 412 400 404 401 431 -364 22 363 -23 0
469 -452 9 0
-469 452 -8 -9 0
-469 453 -9 0
452 -469 453 -8 0
452 469 8 -9 -453 0
469 -452 -453 0
453 469 9 8 0
469 -453 9 0
-470 454 -10 0
469 454 10 -470 0
470 -469 10 0
469 -454 -10 -470 0
470 -469 -454 0
470 -454 10 0
-471 455 -11 0
470 455 11 -471 0
471 -470 11 0
470 -455 -11 -471 0
471 -470 -455 0
471 -455 11 0
-472 456 -12 0
-472 471 456 0
472 -471 12 0
-472 471 -12 0
472 -471 -456 0
472 -456 12 0
-473 457 -13 0
-473 472 457 0
473 -472 13 0
-473 472 -13 0
473 -472 -457 0
473 -457 13 0
-474 458 -14 0
473 458 14 -474 0
474 -473 14 0
473 -458 -14 -474 0
474 -473 -458 0
474 -458 14 0
-475 459 -15 0
474 459 15 -475 0
475 -474 15 0
474 -459 -15 -475 0
475 -474 -459 0
475 -459 15 0
-476 460 -16 0
475 460 16 -476 0
476 -475 16 0
475 -460 -16 -476 0
476 -475 -460 0
476 -460 16 0
-477 461 -17 0
476 461 17 -477 0
477 -476 17 0
476 -461 -17 -477 0
477 -476 -461 0
477 -461 17 0
-478 462 -18 0
477 462 18 -478 0
478 -477 18 0
477 -462 -18 -478 0
478 -477 -462 0
478 -462 18 0
-479 463 -19 0
478 463 19 -479 0
479 -478 19 0
478 -463 -19 -479 0
479 -478 -463 0
479 -463 19 0
-480 464 -20 0
479 464 20 -480 0
480 -479 20 0
479 -464 -20 -480 0
480 -479 -464 0
480 -464 20 0
-481 465 -21 0
480 465 21 -481 0
481 -480 21 0
480 -465 -21 -481 0
481 -480 -465 0
481 -465 21 0
823 467 -466 22 824 825 23 822 0
824 -481 -466 534 -467 822 825 -23 823 0
-481 824 -466 534 467 822 825 23 823 0
824 -466 -467 22 823 825 -23 822 0
823 -481 467 534 22 822 825 23 824 0
824 823 467 -23 822 825 0
-481 823 534 -467 22 822 825 -23 824 0
-452 -502 -8 0
452 -502 8 0
-452 502 8 0
452 502 -8 0
-453 -503 -9 0
453 -503 9 0
-453 503 9 0
453 503 -9 0
-454 -504 -10 0
454 -504 10 0
-454 504 10 0
454 504 -10 0
-455 -505 -11 0
455 -505 11 0
-455 505 11 0
455 505 -11 0
-456 -506 -12 0
456 -506 12 0
-456 506 12 0
456 506 -12 0
-457 -507 -13 0
457 -507 13 0
-457 507 13 0
457 507 -13 0
-458 -508 -14 0
458 -508 14 0
-458 508 14 0
458 508 -14 0
-459 -509 -15 0
459 -509 15 0
-459 509 15 0
459 509 -15 0
-460 -510 -16 0
460 -510 16 0
-460 510 16 0
460 510 -16 0
-461 -511 -17 0
461 -511 17 0
-461 511 17 0
461 511 -17 0
-462 -512 -18 0
462 -512 18 0
-462 512 18 0
462 512 -18 0
-463 -513 -19 0
463 -513 19 0
-463 513 19 0
463 513 -19 0
-464 -514 -20 0
464 -514 20 0
-464 514 20 0
464 514 -20 0
-465 -515 -21 0
465 -515 21 0
-465 515 21 0
465 515 -21 0
-466 534 -23 505 510 508 513 512 507 509 511 506 515 504 502 503 514 -467 -22 0
466 -534 -22 0
467 502 22 505 507 511 513 510 508 504 512 515 506 503 514 509 534 23 466 0
514 513 23 -22 507 505 510 503 512 508 504 511 515 509 502 506 534 -466 467 0
467 -534 -23 0
-502 -534 0
-503 -534 0
-504 -534 0
-505 -534 0
-506 -534 0
-507 -534 0
-508 -534 0
-509 -534 0
-510 -534 0
-511 -534 0
-512 -534 0
-513 -534 0
-514 -534 0
-515 -534 0
-466 -534 22 0
-534 -467 23 0
502 514 510 504 508 513 512 515 507 503 505 509 511 506 534 -467 22 466 -23 0
572 -555 9 0
-8 -572 -9 -556 555 0
-572 -9 556 0
-8 9 556 -572 555 0
572 8 -556 0
572 -555 -556 0
555 9 572 8 0
572 9 -556 0
-573 557 -10 0
-573 572 557 0
573 -572 10 0
-573 572 -10 0
573 -572 -557 0
573 10 -557 0
-574 558 -11 0
573 11 558 -574 0
574 -573 11 0
573 -558 -11 -574 0
574 -573 -558 0
574 11 -558 0
-575 559 -12 0
574 12 559 -575 0
575 -574 12 0
574 -559 -12 -575 0
575 -574 -559 0
575 12 -559 0
-576 560 -13 0
575 13 560 -576 0
576 -575 13 0
575 -560 -13 -576 0
576 -575 -560 0
576 13 -560 0
-577 561 -14 0
576 14 561 -577 0
577 -576 14 0
576 -561 -14 -577 0
577 -576 -561 0
577 14 -561 0
-578 562 -15 0
577 15 562 -578 0
578 -577 15 0
577 -562 -15 -578 0
578 -577 -562 0
578 15 -562 0
-579 563 -16 0
578 16 563 -579 0
579 -578 16 0
578 -563 -16 -579 0
579 -578 -563 0
579 16 -563 0
-580 564 -17 0
579 17 564 -580 0
580 -579 17 0
579 -564 -17 -580 0
580 -579 -564 0
580 17 -564 0
-581 565 -18 0
-581 580 565 0
581 -580 18 0
-581 580 -18 0
581 -580 -565 0
581 18 -565 0
-582 566 -19 0
581 19 566 -582 0
582 -581 19 0
581 -566 -19 -582 0
582 -581 -566 0
582 19 -566 0
-583 567 -20 0
582 20 567 -583 0
583 -582 20 0
582 -567 -20 -583 0
583 -582 -567 0
583 20 -567 0
-584 568 -21 0
583 21 568 -584 0
584 -583 21 0
583 -568 -21 -584 0
584 -583 -568 0
584 21 -568 0
829 570 -569 22 827 830 23 828 0
828 -584 -569 637 -23 -570 829 830 827 0
-584 829 -569 637 570 828 830 23 827 0
828 -569 -570 22 827 829 830 -23 0
-584 827 570 637 22 828 830 23 829 0
-584 827 22 637 -570 -23 829 830 828 0
829 827 -23 570 828 830 0
-555 -8 -605 0
555 8 -605 0
-555 8 605 0
555 -8 605 0
-9 -556 -606 0
9 556 -606 0
-556 9 606 0
556 -9 606 0
-10 -557 -607 0
10 557 -607 0
-557 10 607 0
-10 557 607 0
-11 -558 -608 0
11 558 -608 0
-558 11 608 0
-11 558 608 0
-12 -559 -609 0
12 559 -609 0
-559 12 609 0
-12 559 609 0
-13 -560 -610 0
13 560 -610 0
-560 13 610 0
-13 560 610 0
-14 -561 -611 0
14 561 -611 0
-561 14 611 0
-14 561 611 0
-15 -562 -612 0
15 562 -612 0
-562 15 612 0
-15 562 612 0
-16 -563 -613 0
16 563 -613 0
-563 16 613 0
-16 563 613 0
-17 -564 -614 0
17 564 -614 0
-564 17 614 0
-17 564 614 0
-18 -565 -615 0
18 565 -615 0
-565 18 615 0
-18 565 615 0
-19 -566 -616 0
19 566 -616 0
-566 19 616 0
-19 566 616 0
-20 -567 -617 0
20 567 -617 0
-567 20 617 0
-20 567 617 0
-21 -568 -618 0
21 568 -618 0
-568 21 618 0
-21 568 618 0
-569 -23 607 609 616 613 617 618 612 614 610 611 606 608 605 637 615 -570 -22 0
569 -22 -637 0
570 22 605 606 613 617 607 618 614 610 611 616 609 612 615 608 637 23 569 0
-22 23 606 615 613 617 618 609 614 607 611 616 612 608 605 610 637 -569 570 0
-23 570 -637 0
-605 -637 0
-606 -637 0
-607 -637 0
-608 -637 0
-609 -637 0
-610 -637 0
-611 -637 0
-612 -637 0
-613 -637 0
-614 -637 0
-615 -637 0
-616 -637 0
-617 -637 0
-618 -637 0
22 -569 -637 0
-637 -570 23 0
605 608 609 606 615 616 617 618 614 613 607 612 611 610 637 -570 22 569 -23 0
7 0
109 0
-110 0
228 0
-229 0
331 0
-332 0
434 0
-435 0
537 0
-538 0
640 0
-641 0
838 0
-836 0
-837 0
835 0
834 0
639 0
536 0
433 0
330 0
227 0
108 0
801 0
800 0
799 0
798 0
793 0
792 0
791 0
790 0
785 0
784 0
783 0
782 0
777 0
776 0
775 0
774 0
769 0
768 0
767 0
766 0
761 0
760 0
759 0
758 0
657 0
656 0
655 0
654 0
653 0
652 0
651 0
650 0
649 0
648 0
647 0
646 0
645 0
644 0
643 0
642 0
6 0
638 0
554 0
553 0
552 0
551 0
550 0
549 0
548 0
547 0
546 0
545 0
544 0
543 0
542 0
541 0
540 0
539 0
5 0
535 0
451 0
450 0
449 0
448 0
447 0
446 0
445 0
444 0
443 0
442 0
441 0
440 0
439 0
438 0
437 0
436 0
4 0
432 0
348 0
347 0
346 0
345 0
344 0
343 0
342 0
341 0
340 0
339 0
338 0
337 0
336 0
335 0
334 0
333 0
3 0
329 0
245 0
244 0
243 0
242 0
241 0
240 0
239 0
238 0
237 0
236 0
235 0
234 0
233 0
232 0
231 0
230 0
2 0
226 0
142 0
141 0
140 0
139 0
138 0
137 0
136 0
135 0
134 0
133 0
132 0
131 0
130 0
129 0
128 0
127 0
1 0
107 0
831 0
826 0
821 0
816 0
811 0
806 0
604 0
501 0
398 0
295 0
192 0
73 0
636 0
533 0
430 0
327 0
224 0
105 0
603 0
500 0
397 0
294 0
191 0
72 0
635 0
634 0
633 0
632 0
631 0
630 0
629 0
628 0
627 0
626 0
625 0
624 0
623 0
622 0
621 0
620 0
619 0
532 0
531 0
530 0
529 0
528 0
527 0
526 0
525 0
524 0
523 0
522 0
521 0
520 0
519 0
518 0
517 0
516 0
429 0
40 0
428 0
427 0
426 0
425 0
424 0
423 0
422 0
421 0
420 0
419 0
418 0
417 0
416 0
415 0
414 0
413 0
326 0
325 0
74 0
324 0
323 0
322 0
321 0
320 0
319 0
318 0
317 0
316 0
315 0
314 0
313 0
312 0
311 0
310 0
223 0
222 0
221 0
220 0
219 0
218 0
217 0
216 0
215 0
214 0
213 0
212 0
211 0
210 0
209 0
208 0
207 0
159 0
262 0
365 0
468 0
571 0
104 0
103 0
102 0
101 0
100 0
99 0
98 0
97 0
96 0
95 0
94 0
93 0
92 0
91 0
90 0
89 0
381 0
382 0
383 0
384 0
385 0
386 0
387 0
388 0
389 0
390 0
391 0
392 0
393 0
394 0
395 0
396 0
380 0
379 0
291 0
290 0
289 0
288 0
287 0
286 0
285 0
284 0
283 0
282 0
281 0
280 0
279 0
278 0
292 0
293 0
277 0
276 0
595 0
594 0
593 0
592 0
591 0
590 0
589 0
588 0
587 0
596 0
597 0
598 0
599 0
600 0
601 0
602 0
586 0
585 0
183 0
182 0
181 0
180 0
179 0
178 0
177 0
176 0
175 0
184 0
185 0
186 0
187 0
188 0
189 0
190 0
174 0
173 0
56 0
57 0
58 0
59 0
60 0
61 0
62 0
63 0
64 0
65 0
66 0
67 0
68 0
69 0
70 0
71 0
55 0
54 0
491 0
492 0
493 0
494 0
495 0
496 0
497 0
498 0
499 0
490 0
489 0
488 0
487 0
486 0
485 0
484 0
483 0
482 0
